p tdp 16 47
1 2
1 4
1 8
1 10
1 13
2 3
2 4
2 7
2 10
2 11
2 12
2 15
2 16
3 5
3 10
3 11
4 6
4 10
4 13
4 14
4 15
4 16
5 9
6 7
6 13
6 14
6 15
7 15
8 10
8 11
8 12
8 13
9 10
9 12
9 14
9 16
10 12
10 13
10 14
10 15
10 16
11 15
12 14
13 14
13 15
13 16
14 16
